Traveling Salesman Problem/TSP_generados/Aleatorio1620396503_17.tsp
NAME: Aleatorio1620396503_17.tsp
COMMENT: Randomly generated scenario
TYPE: TSP
DIMENSION: 17
EDGE_WEIGHT_TYPE: ATT
NODE_COORD_SECTION
1 30.53 43.39
2 3.57 26.17
3 38.93 25.03
4 25.18 17.27
5 27.0 43.37
6 14.6 45.18
7 44.74 25.08
8 36.6 38.76
9 8.08 25.31
10 13.1 49.12
11 22.14 23.54
12 28.14 15.49
13 5.21 43.67
14 37.1 10.85
15 49.98 48.73
16 2.82 38.64
17 49.1 29.87
