Traveling Salesman Problem/TSP_generados/Aleatorio1620396503_17.opt.tour
NAME: Aleatorio1620396503_17.opt.tour
COMMENT: Optimal solution for Aleatorio1620396503_17 (156.9884098469713)
TYPE: TOUR
DIMENSION: 17
TOUR_SECTION
1 5 6 10 13 16 2 9 11 4 12 14 3 7 17 15 8
-1
EOF
